knapPI_15_2000_1000_1
n 2000
c 9680
z 9963
time 0.00
1,96,94,1
2,507,506,0
3,417,416,0
4,993,992,0
5,651,649,0
6,237,237,0
7,459,457,0
8,816,815,0
9,447,446,0
10,423,422,0
11,792,791,0
12,360,359,0
13,669,667,0
14,600,598,0
15,9,7,1
16,546,544,0
17,336,334,0
18,768,766,0
19,996,994,0
20,894,893,0
21,633,633,0
22,132,131,0
23,429,428,0
24,702,700,0
25,618,617,0
26,876,874,0
27,720,720,0
28,420,419,0
29,795,794,0
30,198,196,0
31,999,997,0
32,117,116,0
33,909,908,0
34,540,539,0
35,708,707,0
36,570,569,0
37,537,537,0
38,933,931,0
39,726,726,0
40,489,487,0
41,774,772,0
42,513,513,0
43,81,81,0
44,945,943,0
45,60,58,1
46,303,303,0
47,765,764,0
48,537,536,0
49,726,724,0
50,789,789,0
51,480,479,0
52,144,142,0
53,339,339,0
54,642,641,0
55,198,196,0
56,495,494,0
57,66,66,0
58,825,824,0
59,210,208,0
60,711,711,0
61,801,800,0
62,315,314,0
63,291,289,0
64,402,401,0
65,468,466,0
66,690,689,0
67,834,833,0
68,225,225,0
69,246,244,0
70,849,849,0
71,114,113,0
72,381,379,0
73,363,361,0
74,66,65,1
75,486,486,0
76,687,686,0
77,288,286,0
78,891,889,0
79,24,24,0
80,492,491,0
81,891,891,0
82,90,90,0
83,183,181,0
84,216,214,0
85,18,17,1
86,474,472,0
87,420,418,0
88,420,419,0
89,357,356,0
90,684,682,0
91,306,306,0
92,201,201,0
93,387,385,0
94,954,952,0
95,501,500,0
96,195,194,0
97,738,737,0
98,324,324,0
99,993,992,0
100,225,224,0
101,261,260,0
102,99,97,1
103,210,210,0
104,651,649,0
105,921,919,0
106,63,63,0
107,960,958,0
108,804,804,0
109,519,518,0
110,429,428,0
111,537,537,0
112,348,346,0
113,153,153,0
114,972,971,0
115,663,662,0
116,198,197,0
117,93,91,1
118,531,529,0
119,126,126,0
120,747,747,0
121,471,469,0
122,771,770,0
123,936,934,0
124,723,723,0
125,897,895,0
126,570,568,0
127,174,172,0
128,960,958,0
129,384,383,0
130,309,308,0
131,972,970,0
132,585,583,0
133,48,48,0
134,930,930,0
135,570,569,0
136,3,3,0
137,21,20,1
138,609,609,0
139,888,887,0
140,825,825,0
141,930,930,0
142,906,904,0
143,243,241,0
144,381,379,0
145,378,376,0
146,963,962,0
147,891,889,0
148,444,443,0
149,216,216,0
150,339,338,0
151,162,160,0
152,408,406,0
153,159,159,0
154,33,31,1
155,204,204,0
156,420,420,0
157,153,153,0
158,426,425,0
159,333,331,0
160,567,565,0
161,840,838,0
162,9,9,0
163,918,918,0
164,534,533,0
165,234,232,0
166,957,957,0
167,591,591,0
168,576,576,0
169,747,746,0
170,378,377,0
171,858,858,0
172,87,86,0
173,435,434,0
174,558,558,0
175,279,279,0
176,840,840,0
177,735,735,0
178,576,574,0
179,126,126,0
180,912,912,0
181,741,739,0
182,822,821,0
183,627,625,0
184,918,917,0
185,201,201,0
186,993,993,0
187,150,149,0
188,54,52,1
189,759,759,0
190,267,267,0
191,258,256,0
192,783,783,0
193,117,117,0
194,516,516,0
195,180,180,0
196,27,25,1
197,381,380,0
198,714,712,0
199,267,266,0
200,216,216,0
201,450,448,0
202,543,541,0
203,666,664,0
204,954,954,0
205,726,726,0
206,774,772,0
207,531,531,0
208,945,943,0
209,750,750,0
210,327,327,0
211,918,917,0
212,6,5,1
213,114,113,0
214,915,913,0
215,792,791,0
216,999,998,0
217,861,859,0
218,345,345,0
219,432,431,0
220,675,675,0
221,834,833,0
222,438,438,0
223,525,523,0
224,918,916,0
225,420,420,0
226,117,115,1
227,660,660,0
228,261,261,0
229,774,772,0
230,390,388,0
231,765,764,0
232,843,843,0
233,207,206,0
234,408,407,0
235,639,639,0
236,852,852,0
237,543,542,0
238,60,60,0
239,759,757,0
240,84,82,1
241,639,637,0
242,93,93,0
243,615,614,0
244,138,136,1
245,189,187,0
246,102,102,0
247,972,972,0
248,165,163,0
249,501,501,0
250,477,477,0
251,492,492,0
252,123,121,1
253,81,80,0
254,138,138,0
255,660,660,0
256,231,229,0
257,828,827,0
258,450,448,0
259,231,230,0
260,834,832,0
261,489,489,0
262,588,586,0
263,291,291,0
264,666,665,0
265,660,660,0
266,702,702,0
267,153,153,0
268,606,606,0
269,123,123,0
270,255,253,0
271,711,709,0
272,834,832,0
273,108,108,0
274,888,888,0
275,483,481,0
276,285,283,0
277,858,858,0
278,285,284,0
279,711,711,0
280,852,850,0
281,240,239,0
282,945,943,0
283,195,195,0
284,96,95,0
285,411,410,0
286,666,664,0
287,900,900,0
288,114,112,1
289,963,963,0
290,756,754,0
291,459,458,0
292,21,19,1
293,225,225,0
294,570,569,0
295,99,97,1
296,195,194,0
297,756,754,0
298,603,602,0
299,63,61,1
300,696,695,0
301,348,347,0
302,720,719,0
303,102,100,1
304,99,97,1
305,843,843,0
306,747,745,0
307,288,286,0
308,492,492,0
309,117,116,0
310,531,531,0
311,426,424,0
312,255,253,0
313,426,426,0
314,414,413,0
315,981,980,0
316,291,291,0
317,834,833,0
318,486,486,0
319,9,9,0
320,576,575,0
321,924,922,0
322,147,145,0
323,897,897,0
324,405,404,0
325,744,742,0
326,729,728,0
327,270,269,0
328,105,103,1
329,747,745,0
330,36,35,1
331,780,779,0
332,72,71,1
333,81,80,0
334,843,842,0
335,129,128,0
336,942,941,0
337,228,227,0
338,30,30,0
339,342,342,0
340,606,605,0
341,531,531,0
342,366,364,0
343,360,359,0
344,867,867,0
345,822,820,0
346,315,313,0
347,207,207,0
348,912,911,0
349,309,308,0
350,432,430,0
351,687,685,0
352,642,641,0
353,114,113,0
354,141,141,0
355,690,690,0
356,702,700,0
357,561,559,0
358,483,481,0
359,504,503,0
360,768,766,0
361,9,7,1
362,882,882,0
363,861,859,0
364,183,182,0
365,426,425,0
366,543,542,0
367,684,683,0
368,855,853,0
369,939,938,0
370,90,89,0
371,624,624,0
372,183,181,0
373,879,878,0
374,933,933,0
375,582,580,0
376,252,252,0
377,207,207,0
378,660,658,0
379,21,20,1
380,954,954,0
381,348,347,0
382,759,759,0
383,447,446,0
384,15,14,1
385,657,657,0
386,711,710,0
387,981,980,0
388,189,188,0
389,636,636,0
390,204,203,0
391,432,432,0
392,129,129,0
393,630,630,0
394,510,509,0
395,237,237,0
396,375,373,0
397,840,838,0
398,396,395,0
399,693,692,0
400,105,103,1
401,219,218,0
402,384,384,0
403,933,931,0
404,396,396,0
405,390,389,0
406,642,640,0
407,288,287,0
408,297,297,0
409,978,977,0
410,513,512,0
411,219,219,0
412,555,555,0
413,399,398,0
414,291,289,0
415,798,798,0
416,600,598,0
417,51,49,1
418,573,572,0
419,699,697,0
420,771,770,0
421,726,725,0
422,543,542,0
423,216,214,0
424,888,887,0
425,45,45,0
426,96,94,1
427,282,282,0
428,84,82,1
429,321,319,0
430,627,626,0
431,147,146,0
432,543,541,0
433,876,874,0
434,726,725,0
435,777,777,0
436,555,554,0
437,210,208,0
438,789,787,0
439,978,976,0
440,912,912,0
441,444,444,0
442,3,3,0
443,303,301,0
444,165,164,0
445,438,437,0
446,654,652,0
447,765,764,0
448,42,41,1
449,738,737,0
450,177,176,0
451,138,136,1
452,129,128,0
453,396,394,0
454,237,235,0
455,42,42,0
456,825,824,0
457,684,684,0
458,981,979,0
459,570,568,0
460,369,367,0
461,54,52,1
462,642,642,0
463,336,335,0
464,126,126,0
465,132,130,1
466,585,583,0
467,129,129,0
468,753,752,0
469,168,167,0
470,858,856,0
471,642,640,0
472,771,770,0
473,432,431,0
474,195,195,0
475,450,448,0
476,702,701,0
477,954,952,0
478,882,880,0
479,168,168,0
480,81,79,1
481,963,961,0
482,474,472,0
483,219,217,0
484,711,709,0
485,147,147,0
486,297,296,0
487,909,909,0
488,765,764,0
489,252,251,0
490,879,878,0
491,753,753,0
492,570,570,0
493,255,253,0
494,666,666,0
495,933,931,0
496,435,433,0
497,810,810,0
498,678,678,0
499,123,123,0
500,213,212,0
501,66,66,0
502,207,206,0
503,750,750,0
504,66,64,1
505,468,466,0
506,339,337,0
507,510,510,0
508,798,796,0
509,177,175,0
510,438,437,0
511,939,938,0
512,849,848,0
513,561,561,0
514,720,718,0
515,948,948,0
516,651,649,0
517,570,569,0
518,663,663,0
519,582,582,0
520,843,843,0
521,204,202,0
522,702,702,0
523,579,579,0
524,726,725,0
525,804,803,0
526,342,340,0
527,156,156,0
528,834,832,0
529,603,602,0
530,234,234,0
531,690,688,0
532,186,184,0
533,978,978,0
534,414,413,0
535,633,633,0
536,585,585,0
537,606,606,0
538,963,963,0
539,351,350,0
540,243,242,0
541,540,539,0
542,741,739,0
543,267,267,0
544,165,165,0
545,177,177,0
546,720,720,0
547,804,802,0
548,645,644,0
549,84,82,1
550,798,798,0
551,198,197,0
552,174,173,0
553,81,81,0
554,237,235,0
555,114,112,1
556,105,103,1
557,270,268,0
558,879,879,0
559,645,643,0
560,108,106,1
561,123,122,0
562,444,444,0
563,264,262,0
564,693,691,0
565,999,997,0
566,447,446,0
567,171,171,0
568,549,549,0
569,282,281,0
570,213,211,0
571,114,112,1
572,408,408,0
573,732,730,0
574,363,363,0
575,90,89,0
576,606,605,0
577,939,938,0
578,168,168,0
579,705,705,0
580,48,47,1
581,402,400,0
582,216,215,0
583,114,114,0
584,51,51,0
585,882,881,0
586,549,549,0
587,681,679,0
588,330,328,0
589,252,250,0
590,204,203,0
591,483,481,0
592,753,752,0
593,708,707,0
594,84,82,1
595,63,63,0
596,660,660,0
597,21,21,0
598,288,287,0
599,219,219,0
600,501,500,0
601,822,820,0
602,96,95,0
603,45,44,1
604,750,748,0
605,678,678,0
606,276,276,0
607,480,478,0
608,663,663,0
609,594,594,0
610,759,757,0
611,948,947,0
612,450,448,0
613,570,570,0
614,315,313,0
615,981,981,0
616,795,795,0
617,552,552,0
618,390,389,0
619,282,280,0
620,864,864,0
621,636,636,0
622,513,512,0
623,894,892,0
624,186,184,0
625,948,947,0
626,615,614,0
627,627,625,0
628,150,149,0
629,378,377,0
630,474,474,0
631,18,18,0
632,663,662,0
633,417,416,0
634,3,1,1
635,531,530,0
636,753,752,0
637,24,22,1
638,981,981,0
639,777,777,0
640,957,957,0
641,276,275,0
642,585,584,0
643,582,582,0
644,123,121,1
645,951,951,0
646,669,668,0
647,120,118,1
648,321,319,0
649,897,896,0
650,522,521,0
651,948,948,0
652,249,248,0
653,474,474,0
654,351,351,0
655,54,54,0
656,156,155,0
657,660,660,0
658,873,871,0
659,486,486,0
660,294,294,0
661,426,425,0
662,246,245,0
663,384,382,0
664,372,371,0
665,708,708,0
666,546,544,0
667,795,794,0
668,387,387,0
669,738,738,0
670,522,520,0
671,282,281,0
672,504,502,0
673,93,91,1
674,504,503,0
675,924,924,0
676,18,16,1
677,33,33,0
678,345,344,0
679,351,349,0
680,606,606,0
681,897,896,0
682,597,595,0
683,441,441,0
684,102,102,0
685,54,52,1
686,654,654,0
687,711,710,0
688,435,434,0
689,246,245,0
690,36,36,0
691,663,661,0
692,414,413,0
693,15,13,1
694,372,370,0
695,402,400,0
696,195,195,0
697,984,984,0
698,477,476,0
699,165,164,0
700,405,405,0
701,675,674,0
702,198,196,0
703,609,608,0
704,909,907,0
705,534,532,0
706,51,51,0
707,717,716,0
708,327,327,0
709,882,880,0
710,711,710,0
711,267,267,0
712,402,400,0
713,378,376,0
714,609,609,0
715,321,320,0
716,198,196,0
717,540,538,0
718,936,935,0
719,405,404,0
720,102,100,1
721,126,126,0
722,855,855,0
723,96,94,1
724,732,731,0
725,255,253,0
726,9,8,1
727,393,393,0
728,543,543,0
729,348,348,0
730,318,318,0
731,489,489,0
732,24,22,1
733,999,998,0
734,51,49,1
735,381,381,0
736,12,10,1
737,429,429,0
738,222,221,0
739,150,150,0
740,717,717,0
741,531,530,0
742,333,332,0
743,942,942,0
744,567,565,0
745,216,216,0
746,63,61,1
747,171,170,0
748,873,872,0
749,645,644,0
750,210,208,0
751,681,680,0
752,699,697,0
753,639,639,0
754,681,679,0
755,963,961,0
756,363,361,0
757,804,802,0
758,360,359,0
759,840,839,0
760,720,718,0
761,282,280,0
762,252,252,0
763,282,280,0
764,102,102,0
765,615,615,0
766,297,296,0
767,483,481,0
768,957,956,0
769,231,230,0
770,261,259,0
771,924,922,0
772,708,706,0
773,273,272,0
774,156,156,0
775,552,552,0
776,486,485,0
777,537,536,0
778,72,70,1
779,903,902,0
780,453,452,0
781,36,35,1
782,948,947,0
783,378,378,0
784,57,57,0
785,354,352,0
786,669,669,0
787,702,702,0
788,141,141,0
789,459,458,0
790,465,463,0
791,756,756,0
792,888,887,0
793,333,332,0
794,528,528,0
795,657,656,0
796,255,254,0
797,789,787,0
798,495,495,0
799,372,370,0
800,12,10,1
801,201,200,0
802,327,327,0
803,18,17,1
804,375,374,0
805,756,755,0
806,981,980,0
807,378,376,0
808,9,8,1
809,33,32,1
810,462,460,0
811,804,804,0
812,24,23,1
813,870,869,0
814,945,943,0
815,717,715,0
816,630,628,0
817,75,73,0
818,201,199,0
819,39,38,1
820,210,209,0
821,327,327,0
822,912,912,0
823,801,799,0
824,372,372,0
825,978,976,0
826,120,120,0
827,669,667,0
828,189,188,0
829,30,28,1
830,705,704,0
831,651,649,0
832,747,746,0
833,699,697,0
834,714,712,0
835,291,289,0
836,627,625,0
837,954,953,0
838,462,462,0
839,303,302,0
840,81,79,1
841,42,41,1
842,825,823,0
843,909,908,0
844,666,665,0
845,36,36,0
846,732,732,0
847,810,809,0
848,66,66,0
849,291,291,0
850,591,591,0
851,585,583,0
852,252,252,0
853,480,479,0
854,531,530,0
855,225,224,0
856,789,788,0
857,309,309,0
858,366,366,0
859,354,352,0
860,402,402,0
861,546,545,0
862,114,113,0
863,969,967,0
864,456,454,0
865,723,723,0
866,15,14,1
867,21,20,1
868,309,308,0
869,645,644,0
870,714,713,0
871,483,482,0
872,336,336,0
873,291,289,0
874,498,496,0
875,327,326,0
876,531,530,0
877,168,167,0
878,522,522,0
879,831,830,0
880,93,91,1
881,117,116,0
882,747,747,0
883,396,395,0
884,960,958,0
885,756,756,0
886,264,262,0
887,705,703,0
888,513,511,0
889,483,481,0
890,450,449,0
891,888,888,0
892,600,599,0
893,306,306,0
894,492,492,0
895,804,803,0
896,447,445,0
897,318,316,0
898,891,889,0
899,786,785,0
900,765,765,0
901,492,491,0
902,591,589,0
903,126,124,1
904,741,741,0
905,900,898,0
906,726,725,0
907,684,682,0
908,132,131,0
909,399,398,0
910,906,906,0
911,753,753,0
912,312,312,0
913,792,790,0
914,303,301,0
915,945,945,0
916,447,447,0
917,198,197,0
918,27,27,0
919,573,573,0
920,591,589,0
921,936,934,0
922,210,209,0
923,531,529,0
924,900,899,0
925,15,15,0
926,594,592,0
927,93,92,0
928,576,575,0
929,816,814,0
930,354,354,0
931,129,127,1
932,375,374,0
933,567,566,0
934,594,594,0
935,975,973,0
936,645,645,0
937,603,603,0
938,714,712,0
939,33,32,1
940,300,298,0
941,561,561,0
942,906,906,0
943,627,626,0
944,144,143,0
945,504,504,0
946,837,836,0
947,363,361,0
948,432,431,0
949,555,554,0
950,24,24,0
951,417,416,0
952,735,735,0
953,243,243,0
954,456,454,0
955,933,932,0
956,495,494,0
957,648,648,0
958,357,357,0
959,597,596,0
960,789,788,0
961,537,536,0
962,759,759,0
963,201,200,0
964,567,566,0
965,741,741,0
966,219,217,0
967,219,219,0
968,834,832,0
969,819,819,0
970,489,487,0
971,474,473,0
972,243,241,0
973,66,64,1
974,516,516,0
975,858,857,0
976,219,218,0
977,492,490,0
978,504,504,0
979,708,707,0
980,342,342,0
981,477,475,0
982,177,175,0
983,786,786,0
984,171,171,0
985,234,232,0
986,888,888,0
987,867,866,0
988,978,976,0
989,255,253,0
990,621,619,0
991,642,642,0
992,462,460,0
993,219,218,0
994,219,218,0
995,669,667,0
996,951,949,0
997,90,89,0
998,489,488,0
999,570,568,0
1000,528,526,0
1001,861,860,0
1002,6,4,1
1003,774,772,0
1004,735,734,0
1005,261,259,0
1006,270,270,0
1007,6,6,0
1008,426,424,0
1009,204,204,0
1010,315,313,0
1011,159,159,0
1012,207,205,0
1013,27,25,1
1014,951,951,0
1015,723,721,0
1016,636,635,0
1017,294,293,0
1018,714,712,0
1019,411,410,0
1020,465,465,0
1021,366,366,0
1022,75,74,0
1023,24,23,1
1024,417,416,0
1025,765,764,0
1026,51,49,1
1027,819,817,0
1028,507,507,0
1029,153,152,0
1030,258,256,0
1031,564,562,0
1032,495,495,0
1033,414,414,0
1034,78,78,0
1035,912,912,0
1036,60,59,1
1037,261,259,0
1038,258,258,0
1039,843,841,0
1040,138,137,0
1041,591,590,0
1042,384,383,0
1043,870,869,0
1044,939,939,0
1045,282,282,0
1046,882,880,0
1047,480,479,0
1048,456,454,0
1049,732,730,0
1050,558,556,0
1051,195,195,0
1052,411,409,0
1053,582,580,0
1054,99,99,0
1055,915,913,0
1056,798,798,0
1057,318,318,0
1058,792,790,0
1059,345,344,0
1060,81,80,0
1061,468,468,0
1062,924,922,0
1063,180,179,0
1064,348,347,0
1065,231,231,0
1066,597,597,0
1067,609,607,0
1068,903,903,0
1069,312,310,0
1070,225,223,0
1071,12,10,1
1072,846,845,0
1073,906,905,0
1074,60,58,1
1075,93,93,0
1076,759,759,0
1077,912,912,0
1078,906,906,0
1079,45,43,1
1080,78,76,1
1081,552,552,0
1082,672,670,0
1083,672,671,0
1084,354,353,0
1085,837,837,0
1086,12,12,0
1087,891,889,0
1088,912,912,0
1089,378,377,0
1090,57,56,1
1091,585,585,0
1092,852,852,0
1093,717,715,0
1094,423,421,0
1095,330,330,0
1096,51,51,0
1097,840,840,0
1098,699,697,0
1099,849,848,0
1100,828,826,0
1101,198,198,0
1102,342,341,0
1103,276,274,0
1104,741,740,0
1105,339,339,0
1106,876,875,0
1107,402,400,0
1108,603,603,0
1109,474,474,0
1110,126,126,0
1111,975,973,0
1112,975,973,0
1113,582,581,0
1114,789,788,0
1115,630,629,0
1116,801,799,0
1117,477,475,0
1118,960,959,0
1119,81,80,0
1120,918,917,0
1121,93,91,1
1122,783,783,0
1123,774,773,0
1124,714,712,0
1125,657,655,0
1126,954,953,0
1127,279,279,0
1128,702,701,0
1129,708,706,0
1130,147,147,0
1131,357,355,0
1132,102,100,1
1133,498,498,0
1134,261,261,0
1135,591,591,0
1136,630,630,0
1137,375,374,0
1138,960,960,0
1139,918,917,0
1140,408,406,0
1141,759,759,0
1142,618,618,0
1143,981,981,0
1144,642,641,0
1145,132,131,0
1146,921,920,0
1147,534,534,0
1148,453,453,0
1149,399,397,0
1150,51,51,0
1151,303,301,0
1152,198,197,0
1153,912,910,0
1154,213,211,0
1155,852,851,0
1156,42,42,0
1157,921,919,0
1158,30,30,0
1159,675,674,0
1160,981,979,0
1161,765,764,0
1162,939,937,0
1163,657,656,0
1164,591,590,0
1165,339,337,0
1166,999,997,0
1167,645,643,0
1168,654,652,0
1169,633,632,0
1170,828,827,0
1171,660,659,0
1172,57,56,1
1173,99,97,1
1174,306,304,0
1175,771,771,0
1176,681,680,0
1177,345,344,0
1178,561,561,0
1179,633,632,0
1180,666,666,0
1181,237,235,0
1182,72,71,1
1183,327,327,0
1184,825,824,0
1185,3,1,1
1186,948,948,0
1187,852,851,0
1188,780,780,0
1189,603,603,0
1190,381,380,0
1191,84,84,0
1192,684,684,0
1193,759,757,0
1194,606,605,0
1195,306,304,0
1196,360,358,0
1197,294,294,0
1198,744,742,0
1199,39,37,1
1200,6,4,1
1201,708,707,0
1202,132,131,0
1203,660,660,0
1204,90,89,0
1205,456,455,0
1206,303,303,0
1207,681,680,0
1208,972,970,0
1209,936,934,0
1210,951,951,0
1211,405,404,0
1212,447,446,0
1213,351,349,0
1214,93,93,0
1215,672,672,0
1216,159,158,0
1217,774,772,0
1218,891,891,0
1219,534,532,0
1220,621,621,0
1221,348,347,0
1222,228,227,0
1223,555,555,0
1224,18,16,1
1225,303,303,0
1226,942,941,0
1227,834,833,0
1228,192,190,0
1229,624,622,0
1230,345,345,0
1231,894,893,0
1232,192,192,0
1233,432,430,0
1234,162,160,0
1235,768,767,0
1236,171,170,0
1237,810,810,0
1238,318,318,0
1239,690,690,0
1240,225,224,0
1241,54,52,1
1242,411,411,0
1243,204,203,0
1244,786,785,0
1245,219,219,0
1246,63,61,1
1247,921,919,0
1248,192,191,0
1249,711,711,0
1250,294,294,0
1251,939,937,0
1252,255,253,0
1253,105,103,1
1254,318,316,0
1255,627,625,0
1256,639,639,0
1257,642,641,0
1258,141,139,1
1259,45,45,0
1260,318,316,0
1261,219,218,0
1262,294,293,0
1263,747,747,0
1264,879,879,0
1265,633,633,0
1266,12,10,1
1267,357,356,0
1268,666,665,0
1269,537,536,0
1270,825,823,0
1271,603,603,0
1272,393,392,0
1273,258,258,0
1274,771,771,0
1275,822,820,0
1276,141,139,1
1277,567,566,0
1278,231,229,0
1279,327,325,0
1280,804,804,0
1281,786,786,0
1282,984,983,0
1283,849,847,0
1284,390,388,0
1285,633,632,0
1286,255,253,0
1287,405,405,0
1288,138,137,0
1289,285,283,0
1290,678,678,0
1291,660,659,0
1292,708,706,0
1293,786,786,0
1294,315,313,0
1295,144,143,0
1296,714,713,0
1297,246,244,0
1298,489,489,0
1299,846,844,0
1300,897,896,0
1301,603,602,0
1302,210,210,0
1303,930,930,0
1304,693,692,0
1305,459,457,0
1306,243,241,0
1307,951,950,0
1308,231,229,0
1309,213,212,0
1310,222,222,0
1311,33,32,1
1312,747,747,0
1313,870,869,0
1314,246,245,0
1315,576,575,0
1316,819,818,0
1317,204,204,0
1318,585,584,0
1319,822,822,0
1320,198,198,0
1321,942,942,0
1322,942,942,0
1323,900,899,0
1324,375,375,0
1325,327,327,0
1326,480,479,0
1327,66,66,0
1328,951,950,0
1329,465,464,0
1330,288,286,0
1331,573,573,0
1332,294,294,0
1333,138,137,0
1334,558,557,0
1335,423,423,0
1336,429,427,0
1337,96,95,0
1338,717,715,0
1339,405,403,0
1340,453,453,0
1341,735,735,0
1342,3,1,1
1343,147,145,0
1344,783,782,0
1345,849,848,0
1346,456,456,0
1347,492,490,0
1348,681,679,0
1349,462,461,0
1350,846,844,0
1351,72,70,1
1352,600,599,0
1353,888,888,0
1354,396,395,0
1355,735,733,0
1356,795,795,0
1357,369,368,0
1358,96,94,1
1359,114,114,0
1360,48,46,1
1361,795,795,0
1362,585,583,0
1363,321,321,0
1364,714,714,0
1365,333,332,0
1366,258,257,0
1367,906,906,0
1368,303,301,0
1369,279,277,0
1370,651,651,0
1371,219,218,0
1372,111,109,1
1373,558,558,0
1374,390,388,0
1375,123,121,1
1376,372,372,0
1377,228,228,0
1378,210,208,0
1379,327,326,0
1380,573,572,0
1381,51,50,1
1382,753,753,0
1383,78,77,0
1384,267,266,0
1385,228,227,0
1386,504,502,0
1387,339,337,0
1388,33,31,1
1389,630,629,0
1390,216,215,0
1391,354,353,0
1392,276,274,0
1393,345,343,0
1394,759,758,0
1395,840,838,0
1396,480,478,0
1397,597,595,0
1398,255,255,0
1399,333,331,0
1400,363,362,0
1401,84,84,0
1402,18,16,1
1403,459,459,0
1404,222,220,0
1405,18,16,1
1406,867,865,0
1407,720,719,0
1408,294,292,0
1409,177,175,0
1410,462,461,0
1411,303,301,0
1412,759,759,0
1413,717,715,0
1414,207,207,0
1415,129,129,0
1416,681,681,0
1417,261,261,0
1418,894,893,0
1419,399,399,0
1420,378,377,0
1421,189,189,0
1422,360,360,0
1423,15,14,1
1424,729,728,0
1425,315,314,0
1426,225,225,0
1427,534,534,0
1428,915,914,0
1429,96,94,1
1430,549,549,0
1431,675,674,0
1432,435,434,0
1433,213,211,0
1434,987,986,0
1435,864,863,0
1436,804,802,0
1437,279,279,0
1438,33,31,1
1439,810,810,0
1440,969,968,0
1441,189,187,0
1442,792,791,0
1443,192,190,0
1444,411,410,0
1445,594,592,0
1446,888,886,0
1447,876,875,0
1448,765,763,0
1449,354,352,0
1450,60,58,1
1451,816,815,0
1452,564,562,0
1453,573,571,0
1454,324,322,0
1455,465,465,0
1456,420,418,0
1457,198,198,0
1458,555,554,0
1459,657,656,0
1460,108,108,0
1461,453,453,0
1462,909,909,0
1463,576,576,0
1464,648,646,0
1465,114,114,0
1466,315,313,0
1467,693,692,0
1468,759,759,0
1469,645,643,0
1470,462,462,0
1471,861,860,0
1472,906,904,0
1473,960,959,0
1474,663,663,0
1475,210,209,0
1476,564,564,0
1477,234,233,0
1478,480,478,0
1479,717,716,0
1480,618,616,0
1481,108,107,0
1482,981,979,0
1483,468,466,0
1484,972,971,0
1485,78,76,1
1486,888,886,0
1487,498,498,0
1488,150,150,0
1489,444,442,0
1490,138,136,1
1491,36,36,0
1492,39,37,1
1493,345,344,0
1494,552,550,0
1495,357,355,0
1496,981,980,0
1497,474,473,0
1498,957,957,0
1499,324,324,0
1500,861,859,0
1501,570,570,0
1502,294,294,0
1503,261,260,0
1504,675,674,0
1505,339,339,0
1506,261,259,0
1507,384,382,0
1508,660,660,0
1509,432,430,0
1510,762,760,0
1511,684,682,0
1512,666,664,0
1513,360,358,0
1514,114,114,0
1515,144,142,1
1516,21,19,1
1517,753,753,0
1518,165,163,0
1519,123,121,1
1520,96,94,1
1521,399,398,0
1522,588,587,0
1523,99,98,0
1524,144,142,1
1525,303,303,0
1526,969,968,0
1527,534,533,0
1528,984,982,0
1529,570,568,0
1530,519,519,0
1531,279,277,0
1532,624,622,0
1533,519,517,0
1534,720,720,0
1535,636,635,0
1536,57,55,1
1537,264,263,0
1538,285,285,0
1539,189,189,0
1540,630,628,0
1541,9,7,1
1542,291,290,0
1543,657,655,0
1544,387,387,0
1545,642,641,0
1546,744,742,0
1547,741,741,0
1548,795,793,0
1549,804,802,0
1550,897,897,0
1551,264,262,0
1552,195,193,0
1553,882,882,0
1554,132,131,0
1555,483,482,0
1556,573,573,0
1557,444,443,0
1558,204,203,0
1559,966,965,0
1560,75,75,0
1561,807,807,0
1562,807,805,0
1563,513,513,0
1564,474,472,0
1565,798,797,0
1566,690,690,0
1567,297,295,0
1568,786,784,0
1569,534,532,0
1570,156,155,0
1571,111,110,0
1572,885,884,0
1573,174,173,0
1574,78,78,0
1575,714,714,0
1576,633,633,0
1577,477,477,0
1578,120,119,0
1579,720,718,0
1580,15,15,0
1581,474,472,0
1582,330,328,0
1583,795,793,0
1584,201,199,0
1585,999,999,0
1586,177,177,0
1587,525,525,0
1588,948,948,0
1589,498,498,0
1590,495,495,0
1591,891,890,0
1592,906,906,0
1593,336,334,0
1594,387,385,0
1595,399,399,0
1596,339,338,0
1597,522,520,0
1598,831,829,0
1599,483,481,0
1600,99,99,0
1601,681,680,0
1602,87,87,0
1603,804,802,0
1604,891,890,0
1605,840,839,0
1606,339,339,0
1607,885,883,0
1608,69,67,1
1609,546,544,0
1610,357,357,0
1611,459,457,0
1612,444,444,0
1613,642,642,0
1614,153,152,0
1615,60,59,1
1616,618,616,0
1617,60,59,1
1618,987,987,0
1619,354,353,0
1620,531,530,0
1621,960,958,0
1622,615,613,0
1623,840,838,0
1624,87,85,1
1625,87,86,0
1626,570,569,0
1627,480,479,0
1628,684,683,0
1629,402,400,0
1630,372,370,0
1631,882,882,0
1632,147,146,0
1633,117,116,0
1634,762,760,0
1635,408,407,0
1636,447,447,0
1637,390,388,0
1638,42,41,1
1639,660,658,0
1640,120,119,0
1641,30,28,1
1642,459,457,0
1643,198,198,0
1644,18,17,1
1645,432,432,0
1646,321,321,0
1647,429,427,0
1648,207,205,0
1649,345,344,0
1650,564,563,0
1651,306,304,0
1652,48,47,1
1653,696,694,0
1654,93,91,1
1655,963,961,0
1656,645,644,0
1657,111,109,1
1658,960,959,0
1659,969,969,0
1660,42,42,0
1661,108,108,0
1662,648,648,0
1663,51,49,1
1664,228,228,0
1665,930,929,0
1666,528,527,0
1667,969,967,0
1668,318,316,0
1669,582,582,0
1670,840,840,0
1671,576,575,0
1672,504,503,0
1673,912,911,0
1674,306,305,0
1675,990,989,0
1676,837,836,0
1677,369,369,0
1678,588,587,0
1679,234,232,0
1680,453,452,0
1681,900,900,0
1682,954,952,0
1683,81,81,0
1684,996,995,0
1685,564,562,0
1686,741,739,0
1687,705,705,0
1688,6,5,1
1689,558,557,0
1690,492,490,0
1691,294,294,0
1692,363,361,0
1693,900,900,0
1694,48,47,1
1695,207,205,0
1696,147,145,0
1697,846,846,0
1698,660,658,0
1699,849,849,0
1700,681,680,0
1701,150,148,0
1702,96,96,0
1703,210,210,0
1704,690,690,0
1705,21,19,1
1706,831,831,0
1707,681,679,0
1708,726,726,0
1709,528,528,0
1710,15,15,0
1711,564,564,0
1712,849,847,0
1713,723,721,0
1714,9,9,0
1715,702,700,0
1716,447,446,0
1717,858,858,0
1718,699,699,0
1719,273,271,0
1720,978,977,0
1721,534,533,0
1722,156,154,0
1723,756,756,0
1724,873,871,0
1725,912,912,0
1726,729,727,0
1727,969,968,0
1728,570,569,0
1729,165,163,0
1730,618,618,0
1731,687,685,0
1732,651,650,0
1733,807,807,0
1734,393,393,0
1735,276,276,0
1736,306,304,0
1737,912,911,0
1738,234,233,0
1739,42,42,0
1740,402,400,0
1741,162,162,0
1742,51,51,0
1743,735,734,0
1744,933,933,0
1745,366,366,0
1746,18,16,1
1747,177,177,0
1748,360,360,0
1749,744,742,0
1750,726,725,0
1751,870,868,0
1752,489,489,0
1753,501,501,0
1754,633,632,0
1755,366,365,0
1756,198,196,0
1757,498,496,0
1758,744,744,0
1759,147,145,0
1760,501,501,0
1761,882,880,0
1762,249,248,0
1763,684,683,0
1764,501,500,0
1765,390,389,0
1766,621,620,0
1767,93,91,1
1768,723,721,0
1769,861,859,0
1770,666,665,0
1771,417,416,0
1772,483,481,0
1773,321,320,0
1774,867,865,0
1775,126,126,0
1776,759,757,0
1777,963,963,0
1778,783,781,0
1779,240,240,0
1780,330,330,0
1781,519,518,0
1782,825,824,0
1783,936,935,0
1784,51,51,0
1785,309,309,0
1786,18,18,0
1787,864,863,0
1788,3,1,1
1789,750,749,0
1790,660,658,0
1791,579,577,0
1792,579,579,0
1793,510,509,0
1794,156,154,0
1795,924,923,0
1796,399,397,0
1797,687,687,0
1798,960,959,0
1799,618,617,0
1800,639,637,0
1801,624,623,0
1802,174,174,0
1803,777,775,0
1804,609,608,0
1805,306,306,0
1806,1002,1000,0
1807,957,957,0
1808,642,641,0
1809,474,472,0
1810,726,726,0
1811,306,305,0
1812,714,714,0
1813,645,643,0
1814,708,708,0
1815,633,631,0
1816,489,489,0
1817,831,829,0
1818,747,746,0
1819,732,732,0
1820,732,732,0
1821,669,669,0
1822,423,422,0
1823,54,54,0
1824,900,900,0
1825,684,682,0
1826,666,666,0
1827,957,957,0
1828,111,109,1
1829,456,454,0
1830,966,964,0
1831,933,933,0
1832,141,140,0
1833,195,195,0
1834,24,24,0
1835,657,657,0
1836,231,231,0
1837,171,169,0
1838,129,128,0
1839,537,537,0
1840,264,264,0
1841,48,46,1
1842,6,4,1
1843,900,900,0
1844,804,802,0
1845,69,68,1
1846,450,450,0
1847,126,126,0
1848,60,58,1
1849,399,398,0
1850,486,486,0
1851,453,451,0
1852,336,335,0
1853,162,162,0
1854,108,106,1
1855,747,745,0
1856,969,969,0
1857,432,432,0
1858,159,159,0
1859,636,634,0
1860,567,565,0
1861,18,16,1
1862,612,610,0
1863,504,503,0
1864,513,511,0
1865,753,752,0
1866,57,55,1
1867,471,469,0
1868,831,829,0
1869,693,692,0
1870,177,177,0
1871,213,211,0
1872,501,499,0
1873,117,115,1
1874,984,984,0
1875,819,818,0
1876,234,233,0
1877,426,424,0
1878,978,976,0
1879,372,371,0
1880,408,406,0
1881,336,334,0
1882,786,784,0
1883,678,676,0
1884,168,168,0
1885,429,427,0
1886,432,432,0
1887,531,531,0
1888,339,337,0
1889,678,677,0
1890,537,537,0
1891,1002,1000,0
1892,381,379,0
1893,105,103,1
1894,786,785,0
1895,945,943,0
1896,414,412,0
1897,573,572,0
1898,828,828,0
1899,771,771,0
1900,939,939,0
1901,594,594,0
1902,21,19,1
1903,501,500,0
1904,378,376,0
1905,690,689,0
1906,777,776,0
1907,474,474,0
1908,576,575,0
1909,954,953,0
1910,144,143,0
1911,510,510,0
1912,222,221,0
1913,615,615,0
1914,600,599,0
1915,567,567,0
1916,546,545,0
1917,729,727,0
1918,558,558,0
1919,309,307,0
1920,564,564,0
1921,333,331,0
1922,570,568,0
1923,882,881,0
1924,651,649,0
1925,747,746,0
1926,393,393,0
1927,237,237,0
1928,519,517,0
1929,522,521,0
1930,213,213,0
1931,822,820,0
1932,201,199,0
1933,813,813,0
1934,15,14,1
1935,804,803,0
1936,450,448,0
1937,207,207,0
1938,87,86,0
1939,123,123,0
1940,222,220,0
1941,159,158,0
1942,945,944,0
1943,426,424,0
1944,312,311,0
1945,399,399,0
1946,60,59,1
1947,255,253,0
1948,234,233,0
1949,312,312,0
1950,792,790,0
1951,849,849,0
1952,204,202,0
1953,552,552,0
1954,654,653,0
1955,789,788,0
1956,894,893,0
1957,114,113,0
1958,498,498,0
1959,444,442,0
1960,930,929,0
1961,87,86,0
1962,12,12,0
1963,318,318,0
1964,258,258,0
1965,525,524,0
1966,579,579,0
1967,426,424,0
1968,468,468,0
1969,366,364,0
1970,81,81,0
1971,399,399,0
1972,897,896,0
1973,153,151,0
1974,627,626,0
1975,369,367,0
1976,837,837,0
1977,642,640,0
1978,126,124,1
1979,573,572,0
1980,408,408,0
1981,360,358,0
1982,897,895,0
1983,885,884,0
1984,525,523,0
1985,438,438,0
1986,279,278,0
1987,27,25,1
1988,729,729,0
1989,996,996,0
1990,957,956,0
1991,189,188,0
1992,519,519,0
1993,36,35,1
1994,312,311,0
1995,195,195,0
1996,831,829,0
1997,786,784,0
1998,906,904,0
1999,99,99,0
2000,444,443,0
